c "75766.clq"
p edge 141 548
e 1 5
e 1 6
e 1 7
e 1 9
e 1 10
e 1 11
e 1 12
e 1 17
e 1 23
e 1 25
e 1 28
e 1 64
e 1 68
e 1 69
e 1 88
e 1 98
e 1 99
e 1 101
e 1 116
e 1 117
e 1 126
e 1 130
e 1 139
e 2 5
e 2 6
e 2 7
e 2 13
e 2 16
e 2 20
e 2 21
e 2 28
e 2 31
e 2 32
e 2 46
e 2 50
e 2 53
e 2 57
e 2 68
e 3 5
e 3 12
e 3 14
e 3 16
e 3 20
e 3 24
e 3 82
e 3 89
e 3 90
e 3 92
e 4 5
e 4 6
e 4 8
e 4 14
e 4 21
e 4 26
e 4 36
e 4 61
e 4 77
e 4 140
e 5 6
e 5 7
e 5 8
e 5 9
e 5 10
e 5 11
e 5 12
e 5 13
e 5 15
e 5 16
e 5 18
e 5 19
e 5 21
e 5 23
e 5 26
e 5 28
e 5 33
e 5 35
e 5 36
e 5 38
e 5 42
e 5 43
e 5 46
e 5 49
e 5 53
e 5 54
e 5 56
e 5 61
e 5 62
e 5 63
e 5 64
e 5 65
e 5 66
e 5 67
e 5 70
e 5 76
e 5 80
e 5 82
e 5 83
e 5 84
e 5 94
e 5 98
e 5 102
e 5 105
e 5 109
e 5 110
e 5 115
e 5 117
e 5 119
e 5 122
e 5 131
e 5 133
e 5 136
e 5 138
e 5 140
e 6 7
e 6 8
e 6 10
e 6 13
e 6 14
e 6 19
e 6 21
e 6 23
e 6 30
e 6 31
e 6 37
e 6 43
e 6 48
e 6 56
e 6 57
e 6 60
e 6 61
e 6 65
e 6 76
e 6 87
e 6 95
e 6 107
e 6 112
e 6 120
e 6 134
e 6 139
e 7 8
e 7 9
e 7 10
e 7 11
e 7 12
e 7 14
e 7 19
e 7 22
e 7 23
e 7 24
e 7 27
e 7 34
e 7 40
e 7 41
e 7 44
e 7 51
e 7 54
e 7 65
e 7 68
e 7 70
e 7 83
e 7 91
e 7 92
e 7 104
e 7 108
e 7 110
e 7 115
e 7 119
e 7 123
e 7 128
e 7 140
e 8 9
e 8 17
e 8 18
e 8 25
e 8 27
e 8 31
e 8 33
e 8 35
e 8 39
e 8 40
e 8 65
e 8 84
e 8 112
e 8 115
e 8 123
e 8 126
e 8 133
e 8 135
e 9 32
e 9 52
e 9 78
e 9 85
e 9 88
e 9 101
e 9 129
e 9 131
e 10 11
e 10 17
e 10 22
e 10 25
e 10 35
e 10 51
e 10 59
e 10 60
e 10 73
e 10 78
e 10 88
e 10 89
e 10 90
e 10 94
e 10 97
e 10 102
e 10 103
e 10 108
e 10 121
e 10 132
e 11 13
e 11 18
e 11 37
e 11 42
e 11 50
e 11 55
e 11 77
e 11 90
e 11 111
e 11 114
e 11 126
e 11 136
e 12 15
e 12 16
e 12 29
e 12 33
e 12 45
e 12 50
e 12 52
e 12 62
e 12 67
e 12 72
e 12 80
e 12 82
e 12 85
e 12 87
e 12 89
e 12 116
e 12 122
e 12 129
e 13 15
e 13 28
e 13 29
e 13 42
e 13 46
e 13 47
e 13 55
e 13 72
e 13 74
e 13 75
e 13 78
e 13 79
e 13 86
e 13 96
e 13 108
e 13 133
e 14 15
e 14 20
e 14 22
e 14 24
e 14 34
e 14 36
e 14 44
e 14 46
e 14 52
e 14 71
e 14 74
e 14 96
e 14 102
e 14 106
e 14 111
e 14 122
e 14 141
e 15 17
e 15 19
e 15 45
e 15 48
e 15 53
e 15 54
e 15 58
e 15 81
e 16 18
e 16 20
e 16 24
e 16 38
e 16 47
e 16 58
e 16 63
e 16 71
e 16 91
e 16 93
e 17 48
e 17 88
e 17 108
e 18 22
e 18 26
e 18 27
e 18 30
e 18 41
e 18 52
e 18 57
e 18 62
e 18 73
e 18 91
e 18 111
e 18 113
e 18 131
e 18 132
e 19 29
e 19 32
e 19 47
e 19 56
e 19 59
e 19 74
e 19 103
e 20 49
e 20 96
e 21 32
e 21 121
e 22 33
e 22 44
e 22 58
e 22 101
e 22 102
e 22 103
e 22 110
e 22 112
e 22 119
e 22 124
e 22 134
e 23 27
e 23 35
e 23 40
e 23 76
e 23 114
e 23 116
e 24 25
e 24 26
e 24 30
e 24 36
e 24 37
e 24 39
e 24 40
e 24 51
e 24 59
e 24 60
e 24 63
e 24 66
e 24 69
e 24 87
e 24 93
e 24 97
e 24 109
e 24 113
e 24 116
e 24 121
e 24 125
e 24 132
e 24 134
e 24 135
e 25 29
e 25 37
e 25 38
e 25 59
e 25 66
e 25 128
e 26 34
e 26 48
e 26 49
e 26 57
e 26 70
e 26 104
e 26 114
e 27 38
e 27 64
e 27 75
e 27 99
e 27 128
e 28 30
e 28 53
e 28 58
e 28 94
e 28 128
e 29 31
e 29 42
e 29 76
e 29 81
e 29 87
e 30 34
e 30 39
e 30 41
e 30 43
e 30 45
e 30 85
e 30 95
e 30 112
e 30 135
e 32 61
e 33 45
e 33 54
e 33 56
e 34 39
e 34 49
e 34 71
e 34 72
e 35 75
e 36 67
e 38 44
e 38 55
e 38 80
e 39 47
e 39 50
e 39 70
e 39 91
e 39 97
e 39 100
e 39 107
e 39 111
e 39 119
e 39 133
e 40 41
e 40 55
e 40 125
e 40 132
e 41 105
e 42 43
e 42 95
e 42 117
e 43 100
e 44 72
e 44 99
e 45 96
e 47 63
e 47 71
e 47 80
e 47 90
e 47 101
e 47 123
e 49 69
e 49 73
e 50 51
e 51 86
e 53 118
e 53 125
e 54 81
e 55 115
e 56 60
e 56 92
e 57 86
e 58 105
e 58 126
e 59 68
e 60 84
e 61 62
e 61 69
e 61 138
e 62 64
e 62 75
e 62 92
e 62 137
e 63 66
e 63 74
e 63 77
e 63 93
e 63 120
e 65 67
e 65 83
e 65 86
e 65 89
e 66 85
e 66 138
e 67 97
e 67 100
e 67 135
e 67 137
e 68 73
e 68 79
e 68 113
e 69 94
e 69 103
e 69 104
e 69 129
e 70 77
e 70 78
e 70 84
e 70 106
e 70 110
e 70 139
e 71 79
e 72 99
e 72 141
e 73 81
e 73 127
e 74 79
e 74 98
e 75 82
e 75 95
e 75 100
e 75 109
e 75 120
e 76 93
e 76 127
e 77 83
e 77 141
e 78 113
e 78 130
e 79 105
e 81 107
e 82 107
e 82 118
e 84 104
e 84 121
e 84 131
e 89 124
e 89 125
e 90 98
e 91 139
e 92 130
e 92 140
e 93 124
e 93 130
e 93 137
e 98 118
e 101 117
e 102 106
e 102 109
e 102 122
e 102 136
e 105 106
e 107 114
e 108 127
e 108 134
e 112 118
e 113 123
e 113 127
e 115 120
e 116 124
e 122 138
e 128 129
e 128 136
e 128 137
e 131 141
